\ LP format - for model browsing. Use MPS format to capture full model detail.
Minimize
  0 B39(0) + 0 B41(0) + 0 B44(0) + 0 B47(0) + 0 B50(0) + 0 B53(0) + 0 B55(0)
   + 0 B57(0) + 0 B64(0) + 0 B66(0) + 0 B69(0) + 0 B71(0) + 0 B72(0)
   + 0 B75(0) + 0 B78(0) + 0 B81(0) + 0 B84(0) + 0 B85(0) + 0 B86(0)
   + 0 B87(0) + 0 B88(0) + 0 B89(0) + 0 B92(0) + 0 B95(0) + 0 B98(0)
   + 0 B99(0) + 0 B100(0) + 0 B101(0) + 0 B102(0) + 0 B103(0) + 0 B111(0)
   + 0 B114(0) + 0 B115(0) + 0 B116(0) + 0 B117(0) + 0 B119(0) + 0 B120(0)
   + 0 B123(0) + 0 B126(0) + 0 B129(0) + 0 B130(0) + 0 B131(0) + 0 B132(0)
   + 0 B133(0) + 0 B134(0) + 0 B135(0) + 0 B137(0) + 0 B140(0) + 0 B143(0)
   + 0 B144(0) + 0 B145(0) + 0 B146(0) + 0 B147(0) + 0 B148(0) + 0 B149(0)
   + 0 B151(0) + 0 B152(0) + 0 B155(0) + 0 B156(0) + 0 B159(0) + 0 B160(0)
   + 0 B161(0) + 0 B162(0) + 0 B163(0) + 0 B164(0) + 0 B165(0) + 0 B166(0)
   + 0 B167(0) + 0 B168(0) + 0 B169(0) + 0 B171(0) + 0 B172(0) + 0 B174(0)
   + 0 B175(0) + 0 B176(0) + 0 B177(0) + 0 B178(0) + 0 B179(0) + 0 B180(0)
   + 0 B181(0) + 0 B182(0) + 0 B183(0) + 0 B184(0) + 0 B185(0) + 0 B188(0)
   + 0 B189(0) + 0 B190(0) + 0 B191(0) + 0 B192(0) + 0 B193(0) + 0 B194(0)
   + 0 B195(0) + 0 B196(0) + 0 B197(0) + 0 B198(0) + 0 B199(0) + 0 B200(0)
   + 0 B204(0) + 0 B205(0) + 0 B206(0) + 0 B207(0) + 0 B208(0) + 0 B209(0)
   + 0 B210(0) + 0 B211(0) + 0 B212(0) + 0 B213(0) + 0 B214(0) + 0 B215(0)
   + 0 B216(0) + 0 B217(0) + 0 B219(0) + 0 B220(0) + 0 B221(0) + 0 B222(0)
   + 0 B223(0) + 0 B224(0) + 0 B225(0) + 0 B226(0) + 0 B227(0) + 0 B228(0)
   + 0 B229(0) + 0 B230(0) + 0 B231(0) + 0 B233(0) + 0 B234(0) + 0 B235(0)
   + 0 B236(0) + 0 B237(0) + 0 B238(0) + 0 B239(0) + 0 B240(0) + 0 B241(0)
   + 0 B242(0) + 0 B243(0) + 0 B244(0) + 0 B245(0) + 0 B247(0) + 0 B249(0)
   + 0 B250(0) + 0 B251(0) + 0 B252(0) + 0 B253(0) + 0 B254(0) + 0 B255(0)
   + 0 B256(0) + 0 B257(0) + 0 B258(0) + 0 B259(0) + 0 B260(0) + 0 B261(0)
   + 0 B263(0) + I303(1)
Subject To
 c0: B0(18) + B1(14) + B2(8) = 1
 c1: B3(15) + B4(15) + B5(17) = 1
 c2: B6(16) + B7(16) + B8(16) = 1
 c3: B9(14) + B10(10) + B11(8) = 1
 c4: B12(13) + B13(17) + B14(15) = 1
 c5: B15(14) + B16(18) = 1
 c6: B17(18) + B18(14) + B19(10) = 1
 c7: B20(15) + B21(17) + B22(7) = 1
 c8: B23(14) + B24(14) = 1
 c9: B25(16) + B26(10) = 1
 c10: B27(15) + B28(13) = 1
 c11: B29(14) + B30(14) = 1
 c12: B31(16) + B32(10) = 1
 c13: B33(17) + B34(15) + B35(15) = 1
 c14: B36(14) + B37(14) + B38(18) = 1
 c15: - 1e+06 B0(18) + C264(20) <= 0
 c16: - 1e+06 B1(14) + C265(16) <= 0
 c17: - 1e+06 B2(8) + C266(10) <= 0
 c18: - 1e+06 B3(15) + C267(16) <= 0
 c19: - 1e+06 B4(15) + C268(16) <= 0
 c20: - 1e+06 B5(17) + C269(18) <= 0
 c21: - 1e+06 B6(16) + C270(16) <= 0
 c22: - 1e+06 B7(16) + C271(16) <= 0
 c23: - 1e+06 B8(16) + C272(16) <= 0
 c24: - 1e+06 B9(14) + C273(16) <= 0
 c25: - 1e+06 B10(10) + C274(12) <= 0
 c26: - 1e+06 B11(8) + C275(10) <= 0
 c27: - 1e+06 B12(13) + C276(14) <= 0
 c28: - 1e+06 B13(17) + C277(18) <= 0
 c29: - 1e+06 B14(15) + C278(16) <= 0
 c30: - 1e+06 B15(14) + C279(14) <= 0
 c31: - 1e+06 B16(18) + C280(18) <= 0
 c32: - 1e+06 B17(18) + C281(20) <= 0
 c33: - 1e+06 B18(14) + C282(16) <= 0
 c34: - 1e+06 B19(10) + C283(12) <= 0
 c35: - 1e+06 B20(15) + C284(16) <= 0
 c36: - 1e+06 B21(17) + C285(18) <= 0
 c37: - 1e+06 B22(7) + C286(8) <= 0
 c38: - 1e+06 B23(14) + C287(14) <= 0
 c39: - 1e+06 B24(14) + C288(14) <= 0
 c40: - 1e+06 B25(16) + C289(18) <= 0
 c41: - 1e+06 B26(10) + C290(12) <= 0
 c42: - 1e+06 B27(15) + C291(16) <= 0
 c43: - 1e+06 B28(13) + C292(14) <= 0
 c44: - 1e+06 B29(14) + C293(14) <= 0
 c45: - 1e+06 B30(14) + C294(14) <= 0
 c46: - 1e+06 B31(16) + C295(18) <= 0
 c47: - 1e+06 B32(10) + C296(12) <= 0
 c48: - 1e+06 B33(17) + C297(18) <= 0
 c49: - 1e+06 B34(15) + C298(16) <= 0
 c50: - 1e+06 B35(15) + C299(16) <= 0
 c51: - 1e+06 B36(14) + C300(14) <= 0
 c52: - 1e+06 B37(14) + C301(14) <= 0
 c53: - 1e+06 B38(18) + C302(18) <= 0
 c54: - 1e+06 B0(18) - 1e+06 B5(17) - 1e+06 B40(2) + C264(20) - C269(18)
   >= -2.998976e+06
 c55: - 1e+06 B0(18) - 1e+06 B5(17) + 1e+06 B40(2) - C264(20) + C269(18)
   >= -1.999301e+06
 c56: - 1e+06 B1(14) - 1e+06 B9(14) - 1e+06 B42(4) + C265(16) - C273(16)
   >= -2.999612e+06
 c57: - 1e+06 B1(14) - 1e+06 B9(14) + 1e+06 B42(4) - C265(16) + C273(16)
   >= -1.999312e+06
 c58: - 1e+06 B2(8) - 1e+06 B11(8) - 1e+06 B42(4) + C266(10) - C275(10)
   >= -2.998725e+06
 c59: - 1e+06 B2(8) - 1e+06 B11(8) + 1e+06 B42(4) - C266(10) + C275(10)
   >= -1.999119e+06
 c60: - 1e+06 B0(18) - 1e+06 B14(15) - 1e+06 B43(2) + C264(20) - C278(16)
   >= -2.999652e+06
 c61: - 1e+06 B0(18) - 1e+06 B14(15) + 1e+06 B43(2) - C264(20) + C278(16)
   >= -1.999045e+06
 c62: - 1e+06 B0(18) - 1e+06 B17(18) - 1e+06 B45(4) + C264(20) - C281(20)
   >= -2.998846e+06
 c63: - 1e+06 B0(18) - 1e+06 B17(18) + 1e+06 B45(4) - C264(20) + C281(20)
   >= -1.999568e+06
 c64: - 1e+06 B1(14) - 1e+06 B18(14) - 1e+06 B45(4) + C265(16) - C282(16)
   >= -2.999709e+06
 c65: - 1e+06 B1(14) - 1e+06 B18(14) + 1e+06 B45(4) - C265(16) + C282(16)
   >= -1.999652e+06
 c66: - 1e+06 B0(18) - 1e+06 B21(17) - 1e+06 B46(4) + C264(20) - C285(18)
   >= -2.9998e+06
 c67: - 1e+06 B0(18) - 1e+06 B21(17) + 1e+06 B46(4) - C264(20) + C285(18)
   >= -1.998745e+06
 c68: - 1e+06 B2(8) - 1e+06 B22(7) - 1e+06 B46(4) + C266(10) - C286(8)
   >= -2.999391e+06
 c69: - 1e+06 B2(8) - 1e+06 B22(7) + 1e+06 B46(4) - C266(10) + C286(8)
   >= -1.999265e+06
 c70: - 1e+06 B0(18) - 1e+06 B25(16) - 1e+06 B48(2) + C264(20) - C289(18)
   >= -2.999594e+06
 c71: - 1e+06 B0(18) - 1e+06 B25(16) + 1e+06 B48(2) - C264(20) + C289(18)
   >= -1.999622e+06
 c72: - 1e+06 B1(14) - 1e+06 B28(13) - 1e+06 B49(2) + C265(16) - C292(14)
   >= -2.999063e+06
 c73: - 1e+06 B1(14) - 1e+06 B28(13) + 1e+06 B49(2) - C265(16) + C292(14)
   >= -1.998835e+06
 c74: - 1e+06 B1(14) - 1e+06 B31(16) - 1e+06 B51(2) + C265(16) - C295(18)
   >= -2.999841e+06
 c75: - 1e+06 B1(14) - 1e+06 B31(16) + 1e+06 B51(2) - C265(16) + C295(18)
   >= -1.99902e+06
 c76: - 1e+06 B0(18) - 1e+06 B34(15) - 1e+06 B52(4) + C264(20) - C298(16)
   >= -2.999537e+06
 c77: - 1e+06 B0(18) - 1e+06 B34(15) + 1e+06 B52(4) - C264(20) + C298(16)
   >= -1.999675e+06
 c78: - 1e+06 B1(14) - 1e+06 B35(15) - 1e+06 B52(4) + C265(16) - C299(16)
   >= -2.999841e+06
 c79: - 1e+06 B1(14) - 1e+06 B35(15) + 1e+06 B52(4) - C265(16) + C299(16)
   >= -1.999612e+06
 c80: - 1e+06 B0(18) - 1e+06 B5(17) - 1e+06 B54(2) - C264(20) + C269(18)
   >= -2.999301e+06
 c81: - 1e+06 B0(18) - 1e+06 B5(17) + 1e+06 B54(2) + C264(20) - C269(18)
   >= -1.998976e+06
 c82: - 1e+06 B3(15) - 1e+06 B6(16) - 1e+06 B56(4) + C267(16) - C270(16)
   >= -2.999627e+06
 c83: - 1e+06 B3(15) - 1e+06 B6(16) + 1e+06 B56(4) - C267(16) + C270(16)
   >= -1.99933e+06
 c84: - 1e+06 B4(15) - 1e+06 B7(16) - 1e+06 B56(4) + C268(16) - C271(16)
   >= -2.998653e+06
 c85: - 1e+06 B4(15) - 1e+06 B7(16) + 1e+06 B56(4) - C268(16) + C271(16)
   >= -1.99927e+06
 c86: - 1e+06 B4(15) - 1e+06 B12(13) - 1e+06 B58(4) + C268(16) - C276(14)
   >= -2.999806e+06
 c87: - 1e+06 B4(15) - 1e+06 B12(13) + 1e+06 B58(4) - C268(16) + C276(14)
   >= -1.999618e+06
 c88: - 1e+06 B5(17) - 1e+06 B14(15) - 1e+06 B58(4) + C269(18) - C278(16)
   >= -2.999361e+06
 c89: - 1e+06 B5(17) - 1e+06 B14(15) + 1e+06 B58(4) - C269(18) + C278(16)
   >= -1.999538e+06
 c90: - 1e+06 B3(15) - 1e+06 B15(14) - 1e+06 B59(2) + C267(16) - C279(14)
   >= -2.999094e+06
 c91: - 1e+06 B3(15) - 1e+06 B15(14) + 1e+06 B59(2) - C267(16) + C279(14)
   >= -1.999358e+06
 c92: - 1e+06 B5(17) - 1e+06 B17(18) - 1e+06 B60(2) + C269(18) - C281(20)
   >= -2.999676e+06
 c93: - 1e+06 B5(17) - 1e+06 B17(18) + 1e+06 B60(2) - C269(18) + C281(20)
   >= -1.999641e+06
 c94: - 1e+06 B5(17) - 1e+06 B21(17) - 1e+06 B61(2) + C269(18) - C285(18)
   >= -2.999733e+06
 c95: - 1e+06 B5(17) - 1e+06 B21(17) + 1e+06 B61(2) - C269(18) + C285(18)
   >= -1.999268e+06
 c96: - 1e+06 B3(15) - 1e+06 B23(14) - 1e+06 B62(4) + C267(16) - C287(14)
   >= -2.999745e+06
 c97: - 1e+06 B3(15) - 1e+06 B23(14) + 1e+06 B62(4) - C267(16) + C287(14)
   >= -1.99945e+06
 c98: - 1e+06 B4(15) - 1e+06 B24(14) - 1e+06 B62(4) + C268(16) - C288(14)
   >= -2.999795e+06
 c99: - 1e+06 B4(15) - 1e+06 B24(14) + 1e+06 B62(4) - C268(16) + C288(14)
   >= -1.998805e+06
 c100: - 1e+06 B5(17) - 1e+06 B25(16) - 1e+06 B63(2) + C269(18) - C289(18)
   >= -2.999417e+06
 c101: - 1e+06 B5(17) - 1e+06 B25(16) + 1e+06 B63(2) - C269(18) + C289(18)
   >= -1.998944e+06
 c102: - 1e+06 B3(15) - 1e+06 B29(14) - 1e+06 B65(4) + C267(16) - C293(14)
   >= -2.999049e+06
 c103: - 1e+06 B3(15) - 1e+06 B29(14) + 1e+06 B65(4) - C267(16) + C293(14)
   >= -1.999598e+06
 c104: - 1e+06 B4(15) - 1e+06 B30(14) - 1e+06 B65(4) + C268(16) - C294(14)
   >= -2.999437e+06
 c105: - 1e+06 B4(15) - 1e+06 B30(14) + 1e+06 B65(4) - C268(16) + C294(14)
   >= -1.999754e+06
 c106: - 1e+06 B5(17) - 1e+06 B34(15) - 1e+06 B67(2) + C269(18) - C298(16)
   >= -2.999883e+06
 c107: - 1e+06 B5(17) - 1e+06 B34(15) + 1e+06 B67(2) - C269(18) + C298(16)
   >= -1.999626e+06
 c108: - 1e+06 B3(15) - 1e+06 B36(14) - 1e+06 B68(4) + C267(16) - C300(14)
   >= -2.999789e+06
 c109: - 1e+06 B3(15) - 1e+06 B36(14) + 1e+06 B68(4) - C267(16) + C300(14)
   >= -1.999173e+06
 c110: - 1e+06 B4(15) - 1e+06 B37(14) - 1e+06 B68(4) + C268(16) - C301(14)
   >= -2.999768e+06
 c111: - 1e+06 B4(15) - 1e+06 B37(14) + 1e+06 B68(4) - C268(16) + C301(14)
   >= -1.999692e+06
 c112: - 1e+06 B3(15) - 1e+06 B6(16) - 1e+06 B70(4) - C267(16) + C270(16)
   >= -2.99933e+06
 c113: - 1e+06 B3(15) - 1e+06 B6(16) + 1e+06 B70(4) + C267(16) - C270(16)
   >= -1.999627e+06
 c114: - 1e+06 B4(15) - 1e+06 B7(16) - 1e+06 B70(4) - C268(16) + C271(16)
   >= -2.99927e+06
 c115: - 1e+06 B4(15) - 1e+06 B7(16) + 1e+06 B70(4) + C268(16) - C271(16)
   >= -1.998653e+06
 c116: - 1e+06 B7(16) - 1e+06 B12(13) - 1e+06 B73(4) + C271(16) - C276(14)
   >= -2.999184e+06
 c117: - 1e+06 B7(16) - 1e+06 B12(13) + 1e+06 B73(4) - C271(16) + C276(14)
   >= -1.999042e+06
 c118: - 1e+06 B8(16) - 1e+06 B13(17) - 1e+06 B73(4) + C272(16) - C277(18)
   >= -2.99955e+06
 c119: - 1e+06 B8(16) - 1e+06 B13(17) + 1e+06 B73(4) - C272(16) + C277(18)
   >= -1.999485e+06
 c120: - 1e+06 B6(16) - 1e+06 B15(14) - 1e+06 B74(4) + C270(16) - C279(14)
   >= -2.999456e+06
 c121: - 1e+06 B6(16) - 1e+06 B15(14) + 1e+06 B74(4) - C270(16) + C279(14)
   >= -1.999629e+06
 c122: - 1e+06 B8(16) - 1e+06 B16(18) - 1e+06 B74(4) + C272(16) - C280(18)
   >= -2.999622e+06
 c123: - 1e+06 B8(16) - 1e+06 B16(18) + 1e+06 B74(4) - C272(16) + C280(18)
   >= -1.999567e+06
 c124: - 1e+06 B8(16) - 1e+06 B20(15) - 1e+06 B76(2) + C272(16) - C284(16)
   >= -2.999624e+06
 c125: - 1e+06 B8(16) - 1e+06 B20(15) + 1e+06 B76(2) - C272(16) + C284(16)
   >= -1.999635e+06
 c126: - 1e+06 B6(16) - 1e+06 B23(14) - 1e+06 B77(4) + C270(16) - C287(14)
   >= -2.999501e+06
 c127: - 1e+06 B6(16) - 1e+06 B23(14) + 1e+06 B77(4) - C270(16) + C287(14)
   >= -1.998853e+06
 c128: - 1e+06 B7(16) - 1e+06 B24(14) - 1e+06 B77(4) + C271(16) - C288(14)
   >= -2.999779e+06
 c129: - 1e+06 B7(16) - 1e+06 B24(14) + 1e+06 B77(4) - C271(16) + C288(14)
   >= -1.999198e+06
 c130: - 1e+06 B8(16) - 1e+06 B27(15) - 1e+06 B79(2) + C272(16) - C291(16)
   >= -2.999636e+06
 c131: - 1e+06 B8(16) - 1e+06 B27(15) + 1e+06 B79(2) - C272(16) + C291(16)
   >= -1.999672e+06
 c132: - 1e+06 B6(16) - 1e+06 B29(14) - 1e+06 B80(4) + C270(16) - C293(14)
   >= -2.999413e+06
 c133: - 1e+06 B6(16) - 1e+06 B29(14) + 1e+06 B80(4) - C270(16) + C293(14)
   >= -1.999579e+06
 c134: - 1e+06 B7(16) - 1e+06 B30(14) - 1e+06 B80(4) + C271(16) - C294(14)
   >= -2.999254e+06
 c135: - 1e+06 B7(16) - 1e+06 B30(14) + 1e+06 B80(4) - C271(16) + C294(14)
   >= -1.999654e+06
 c136: - 1e+06 B8(16) - 1e+06 B33(17) - 1e+06 B82(2) + C272(16) - C297(18)
   >= -2.998926e+06
 c137: - 1e+06 B8(16) - 1e+06 B33(17) + 1e+06 B82(2) - C272(16) + C297(18)
   >= -1.999216e+06
 c138: - 1e+06 B6(16) - 1e+06 B36(14) - 1e+06 B83(6) + C270(16) - C300(14)
   >= -2.999276e+06
 c139: - 1e+06 B6(16) - 1e+06 B36(14) + 1e+06 B83(6) - C270(16) + C300(14)
   >= -1.999674e+06
 c140: - 1e+06 B7(16) - 1e+06 B37(14) - 1e+06 B83(6) + C271(16) - C301(14)
   >= -2.999238e+06
 c141: - 1e+06 B7(16) - 1e+06 B37(14) + 1e+06 B83(6) - C271(16) + C301(14)
   >= -1.999766e+06
 c142: - 1e+06 B8(16) - 1e+06 B38(18) - 1e+06 B83(6) + C272(16) - C302(18)
   >= -2.999025e+06
 c143: - 1e+06 B8(16) - 1e+06 B38(18) + 1e+06 B83(6) - C272(16) + C302(18)
   >= -1.999215e+06
 c144: - 1e+06 B9(14) - 1e+06 B18(14) - 1e+06 B90(4) + C273(16) - C282(16)
   >= -2.999246e+06
 c145: - 1e+06 B9(14) - 1e+06 B18(14) + 1e+06 B90(4) - C273(16) + C282(16)
   >= -1.999197e+06
 c146: - 1e+06 B10(10) - 1e+06 B19(10) - 1e+06 B90(4) + C274(12) - C283(12)
   >= -2.999519e+06
 c147: - 1e+06 B10(10) - 1e+06 B19(10) + 1e+06 B90(4) - C274(12) + C283(12)
   >= -1.999619e+06
 c148: - 1e+06 B11(8) - 1e+06 B22(7) - 1e+06 B91(2) + C275(10) - C286(8)
   >= -2.999395e+06
 c149: - 1e+06 B11(8) - 1e+06 B22(7) + 1e+06 B91(2) - C275(10) + C286(8)
   >= -1.99959e+06
 c150: - 1e+06 B10(10) - 1e+06 B26(10) - 1e+06 B93(2) + C274(12) - C290(12)
   >= -2.999644e+06
 c151: - 1e+06 B10(10) - 1e+06 B26(10) + 1e+06 B93(2) - C274(12) + C290(12)
   >= -1.999428e+06
 c152: - 1e+06 B9(14) - 1e+06 B28(13) - 1e+06 B94(2) + C273(16) - C292(14)
   >= -2.998817e+06
 c153: - 1e+06 B9(14) - 1e+06 B28(13) + 1e+06 B94(2) - C273(16) + C292(14)
   >= -1.998707e+06
 c154: - 1e+06 B9(14) - 1e+06 B31(16) - 1e+06 B96(4) + C273(16) - C295(18)
   >= -2.999797e+06
 c155: - 1e+06 B9(14) - 1e+06 B31(16) + 1e+06 B96(4) - C273(16) + C295(18)
   >= -1.999576e+06
 c156: - 1e+06 B10(10) - 1e+06 B32(10) - 1e+06 B96(4) + C274(12) - C296(12)
   >= -2.999597e+06
 c157: - 1e+06 B10(10) - 1e+06 B32(10) + 1e+06 B96(4) - C274(12) + C296(12)
   >= -1.999662e+06
 c158: - 1e+06 B9(14) - 1e+06 B35(15) - 1e+06 B97(2) + C273(16) - C299(16)
   >= -2.999605e+06
 c159: - 1e+06 B9(14) - 1e+06 B35(15) + 1e+06 B97(2) - C273(16) + C299(16)
   >= -1.99945e+06
 c160: - 1e+06 B13(17) - 1e+06 B16(18) - 1e+06 B104(2) + C277(18)
   - C280(18) >= -2.999748e+06
 c161: - 1e+06 B13(17) - 1e+06 B16(18) + 1e+06 B104(2) - C277(18)
   + C280(18) >= -1.999732e+06
 c162: - 1e+06 B14(15) - 1e+06 B17(18) - 1e+06 B105(2) + C278(16)
   - C281(20) >= -2.99961e+06
 c163: - 1e+06 B14(15) - 1e+06 B17(18) + 1e+06 B105(2) - C278(16)
   + C281(20) >= -1.999735e+06
 c164: - 1e+06 B13(17) - 1e+06 B20(15) - 1e+06 B106(4) + C277(18)
   - C284(16) >= -2.999693e+06
 c165: - 1e+06 B13(17) - 1e+06 B20(15) + 1e+06 B106(4) - C277(18)
   + C284(16) >= -1.999065e+06
 c166: - 1e+06 B14(15) - 1e+06 B21(17) - 1e+06 B106(4) + C278(16)
   - C285(18) >= -2.999768e+06
 c167: - 1e+06 B14(15) - 1e+06 B21(17) + 1e+06 B106(4) - C278(16)
   + C285(18) >= -1.999565e+06
 c168: - 1e+06 B12(13) - 1e+06 B24(14) - 1e+06 B107(2) + C276(14)
   - C288(14) >= -2.999768e+06
 c169: - 1e+06 B12(13) - 1e+06 B24(14) + 1e+06 B107(2) - C276(14)
   + C288(14) >= -1.99939e+06
 c170: - 1e+06 B14(15) - 1e+06 B25(16) - 1e+06 B108(2) + C278(16)
   - C289(18) >= -2.999681e+06
 c171: - 1e+06 B14(15) - 1e+06 B25(16) + 1e+06 B108(2) - C278(16)
   + C289(18) >= -1.999718e+06
 c172: - 1e+06 B13(17) - 1e+06 B27(15) - 1e+06 B109(2) + C277(18)
   - C291(16) >= -2.999566e+06
 c173: - 1e+06 B13(17) - 1e+06 B27(15) + 1e+06 B109(2) - C277(18)
   + C291(16) >= -1.999457e+06
 c174: - 1e+06 B12(13) - 1e+06 B30(14) - 1e+06 B110(2) + C276(14)
   - C294(14) >= -2.999836e+06
 c175: - 1e+06 B12(13) - 1e+06 B30(14) + 1e+06 B110(2) - C276(14)
   + C294(14) >= -1.999253e+06
 c176: - 1e+06 B13(17) - 1e+06 B33(17) - 1e+06 B112(4) + C277(18)
   - C297(18) >= -2.999756e+06
 c177: - 1e+06 B13(17) - 1e+06 B33(17) + 1e+06 B112(4) - C277(18)
   + C297(18) >= -1.999573e+06
 c178: - 1e+06 B14(15) - 1e+06 B34(15) - 1e+06 B112(4) + C278(16)
   - C298(16) >= -2.99966e+06
 c179: - 1e+06 B14(15) - 1e+06 B34(15) + 1e+06 B112(4) - C278(16)
   + C298(16) >= -1.999514e+06
 c180: - 1e+06 B12(13) - 1e+06 B37(14) - 1e+06 B113(4) + C276(14)
   - C301(14) >= -2.998998e+06
 c181: - 1e+06 B12(13) - 1e+06 B37(14) + 1e+06 B113(4) - C276(14)
   + C301(14) >= -1.999733e+06
 c182: - 1e+06 B13(17) - 1e+06 B38(18) - 1e+06 B113(4) + C277(18)
   - C302(18) >= -2.999798e+06
 c183: - 1e+06 B13(17) - 1e+06 B38(18) + 1e+06 B113(4) - C277(18)
   + C302(18) >= -1.999551e+06
 c184: - 1e+06 B13(17) - 1e+06 B16(18) - 1e+06 B118(2) - C277(18)
   + C280(18) >= -2.999732e+06
 c185: - 1e+06 B13(17) - 1e+06 B16(18) + 1e+06 B118(2) + C277(18)
   - C280(18) >= -1.999748e+06
 c186: - 1e+06 B16(18) - 1e+06 B20(15) - 1e+06 B121(2) + C280(18)
   - C284(16) >= -2.999732e+06
 c187: - 1e+06 B16(18) - 1e+06 B20(15) + 1e+06 B121(2) - C280(18)
   + C284(16) >= -1.99897e+06
 c188: - 1e+06 B15(14) - 1e+06 B23(14) - 1e+06 B122(2) + C279(14)
   - C287(14) >= -2.999493e+06
 c189: - 1e+06 B15(14) - 1e+06 B23(14) + 1e+06 B122(2) - C279(14)
   + C287(14) >= -1.999432e+06
 c190: - 1e+06 B16(18) - 1e+06 B27(15) - 1e+06 B124(2) + C280(18)
   - C291(16) >= -2.999588e+06
 c191: - 1e+06 B16(18) - 1e+06 B27(15) + 1e+06 B124(2) - C280(18)
   + C291(16) >= -1.999418e+06
 c192: - 1e+06 B15(14) - 1e+06 B29(14) - 1e+06 B125(2) + C279(14)
   - C293(14) >= -2.999716e+06
 c193: - 1e+06 B15(14) - 1e+06 B29(14) + 1e+06 B125(2) - C279(14)
   + C293(14) >= -1.999384e+06
 c194: - 1e+06 B16(18) - 1e+06 B33(17) - 1e+06 B127(2) + C280(18)
   - C297(18) >= -2.99966e+06
 c195: - 1e+06 B16(18) - 1e+06 B33(17) + 1e+06 B127(2) - C280(18)
   + C297(18) >= -1.999797e+06
 c196: - 1e+06 B15(14) - 1e+06 B36(14) - 1e+06 B128(4) + C279(14)
   - C300(14) >= -2.998912e+06
 c197: - 1e+06 B15(14) - 1e+06 B36(14) + 1e+06 B128(4) - C279(14)
   + C300(14) >= -1.999462e+06
 c198: - 1e+06 B16(18) - 1e+06 B38(18) - 1e+06 B128(4) + C280(18)
   - C302(18) >= -2.999427e+06
 c199: - 1e+06 B16(18) - 1e+06 B38(18) + 1e+06 B128(4) - C280(18)
   + C302(18) >= -1.999518e+06
 c200: - 1e+06 B17(18) - 1e+06 B21(17) - 1e+06 B136(2) + C281(20)
   - C285(18) >= -2.999828e+06
 c201: - 1e+06 B17(18) - 1e+06 B21(17) + 1e+06 B136(2) - C281(20)
   + C285(18) >= -1.998715e+06
 c202: - 1e+06 B17(18) - 1e+06 B25(16) - 1e+06 B138(4) + C281(20)
   - C289(18) >= -2.999105e+06
 c203: - 1e+06 B17(18) - 1e+06 B25(16) + 1e+06 B138(4) - C281(20)
   + C289(18) >= -1.99965e+06
 c204: - 1e+06 B19(10) - 1e+06 B26(10) - 1e+06 B138(4) + C283(12)
   - C290(12) >= -2.999049e+06
 c205: - 1e+06 B19(10) - 1e+06 B26(10) + 1e+06 B138(4) - C283(12)
   + C290(12) >= -1.999616e+06
 c206: - 1e+06 B18(14) - 1e+06 B28(13) - 1e+06 B139(2) + C282(16)
   - C292(14) >= -2.999417e+06
 c207: - 1e+06 B18(14) - 1e+06 B28(13) + 1e+06 B139(2) - C282(16)
   + C292(14) >= -1.999536e+06
 c208: - 1e+06 B18(14) - 1e+06 B31(16) - 1e+06 B141(4) + C282(16)
   - C295(18) >= -2.998785e+06
 c209: - 1e+06 B18(14) - 1e+06 B31(16) + 1e+06 B141(4) - C282(16)
   + C295(18) >= -1.999804e+06
 c210: - 1e+06 B19(10) - 1e+06 B32(10) - 1e+06 B141(4) + C283(12)
   - C296(12) >= -2.999441e+06
 c211: - 1e+06 B19(10) - 1e+06 B32(10) + 1e+06 B141(4) - C283(12)
   + C296(12) >= -1.999417e+06
 c212: - 1e+06 B17(18) - 1e+06 B34(15) - 1e+06 B142(4) + C281(20)
   - C298(16) >= -2.999127e+06
 c213: - 1e+06 B17(18) - 1e+06 B34(15) + 1e+06 B142(4) - C281(20)
   + C298(16) >= -1.998605e+06
 c214: - 1e+06 B18(14) - 1e+06 B35(15) - 1e+06 B142(4) + C282(16)
   - C299(16) >= -2.999337e+06
 c215: - 1e+06 B18(14) - 1e+06 B35(15) + 1e+06 B142(4) - C282(16)
   + C299(16) >= -1.999798e+06
 c216: - 1e+06 B17(18) - 1e+06 B21(17) - 1e+06 B150(2) - C281(20)
   + C285(18) >= -2.998715e+06
 c217: - 1e+06 B17(18) - 1e+06 B21(17) + 1e+06 B150(2) + C281(20)
   - C285(18) >= -1.999828e+06
 c218: - 1e+06 B21(17) - 1e+06 B25(16) - 1e+06 B153(2) + C285(18)
   - C289(18) >= -2.999183e+06
 c219: - 1e+06 B21(17) - 1e+06 B25(16) + 1e+06 B153(2) - C285(18)
   + C289(18) >= -1.99965e+06
 c220: - 1e+06 B20(15) - 1e+06 B27(15) - 1e+06 B154(2) + C284(16)
   - C291(16) >= -2.999365e+06
 c221: - 1e+06 B20(15) - 1e+06 B27(15) + 1e+06 B154(2) - C284(16)
   + C291(16) >= -1.999193e+06
 c222: - 1e+06 B20(15) - 1e+06 B33(17) - 1e+06 B157(4) + C284(16)
   - C297(18) >= -2.99982e+06
 c223: - 1e+06 B20(15) - 1e+06 B33(17) + 1e+06 B157(4) - C284(16)
   + C297(18) >= -1.999364e+06
 c224: - 1e+06 B21(17) - 1e+06 B34(15) - 1e+06 B157(4) + C285(18)
   - C298(16) >= -2.999447e+06
 c225: - 1e+06 B21(17) - 1e+06 B34(15) + 1e+06 B157(4) - C285(18)
   + C298(16) >= -1.999603e+06
 c226: - 1e+06 B20(15) - 1e+06 B38(18) - 1e+06 B158(2) + C284(16)
   - C302(18) >= -2.999087e+06
 c227: - 1e+06 B20(15) - 1e+06 B38(18) + 1e+06 B158(2) - C284(16)
   + C302(18) >= -1.999691e+06
 c228: - 1e+06 B23(14) - 1e+06 B29(14) - 1e+06 B170(4) + C287(14)
   - C293(14) >= -2.999686e+06
 c229: - 1e+06 B23(14) - 1e+06 B29(14) + 1e+06 B170(4) - C287(14)
   + C293(14) >= -1.999184e+06
 c230: - 1e+06 B24(14) - 1e+06 B30(14) - 1e+06 B170(4) + C288(14)
   - C294(14) >= -2.999495e+06
 c231: - 1e+06 B24(14) - 1e+06 B30(14) + 1e+06 B170(4) - C288(14)
   + C294(14) >= -1.999106e+06
 c232: - 1e+06 B23(14) - 1e+06 B36(14) - 1e+06 B173(4) + C287(14)
   - C300(14) >= -2.99967e+06
 c233: - 1e+06 B23(14) - 1e+06 B36(14) + 1e+06 B173(4) - C287(14)
   + C300(14) >= -1.999503e+06
 c234: - 1e+06 B24(14) - 1e+06 B37(14) - 1e+06 B173(4) + C288(14)
   - C301(14) >= -2.999554e+06
 c235: - 1e+06 B24(14) - 1e+06 B37(14) + 1e+06 B173(4) - C288(14)
   + C301(14) >= -1.999766e+06
 c236: - 1e+06 B26(10) - 1e+06 B32(10) - 1e+06 B186(2) + C290(12)
   - C296(12) >= -2.999521e+06
 c237: - 1e+06 B26(10) - 1e+06 B32(10) + 1e+06 B186(2) - C290(12)
   + C296(12) >= -1.999507e+06
 c238: - 1e+06 B25(16) - 1e+06 B34(15) - 1e+06 B187(2) + C289(18)
   - C298(16) >= -2.999091e+06
 c239: - 1e+06 B25(16) - 1e+06 B34(15) + 1e+06 B187(2) - C289(18)
   + C298(16) >= -1.999435e+06
 c240: - 1e+06 B28(13) - 1e+06 B31(16) - 1e+06 B201(2) + C292(14)
   - C295(18) >= -2.998978e+06
 c241: - 1e+06 B28(13) - 1e+06 B31(16) + 1e+06 B201(2) - C292(14)
   + C295(18) >= -1.999352e+06
 c242: - 1e+06 B27(15) - 1e+06 B33(17) - 1e+06 B202(4) + C291(16)
   - C297(18) >= -2.999594e+06
 c243: - 1e+06 B27(15) - 1e+06 B33(17) + 1e+06 B202(4) - C291(16)
   + C297(18) >= -1.998885e+06
 c244: - 1e+06 B28(13) - 1e+06 B35(15) - 1e+06 B202(4) + C292(14)
   - C299(16) >= -2.9995e+06
 c245: - 1e+06 B28(13) - 1e+06 B35(15) + 1e+06 B202(4) - C292(14)
   + C299(16) >= -1.999032e+06
 c246: - 1e+06 B27(15) - 1e+06 B38(18) - 1e+06 B203(2) + C291(16)
   - C302(18) >= -2.99967e+06
 c247: - 1e+06 B27(15) - 1e+06 B38(18) + 1e+06 B203(2) - C291(16)
   + C302(18) >= -1.999688e+06
 c248: - 1e+06 B29(14) - 1e+06 B36(14) - 1e+06 B218(4) + C293(14)
   - C300(14) >= -2.999364e+06
 c249: - 1e+06 B29(14) - 1e+06 B36(14) + 1e+06 B218(4) - C293(14)
   + C300(14) >= -1.998973e+06
 c250: - 1e+06 B30(14) - 1e+06 B37(14) - 1e+06 B218(4) + C294(14)
   - C301(14) >= -2.99982e+06
 c251: - 1e+06 B30(14) - 1e+06 B37(14) + 1e+06 B218(4) - C294(14)
   + C301(14) >= -1.999452e+06
 c252: - 1e+06 B31(16) - 1e+06 B35(15) - 1e+06 B232(2) + C295(18)
   - C299(16) >= -2.999904e+06
 c253: - 1e+06 B31(16) - 1e+06 B35(15) + 1e+06 B232(2) - C295(18)
   + C299(16) >= -1.999662e+06
 c254: - 1e+06 B31(16) - 1e+06 B35(15) - 1e+06 B246(2) - C295(18)
   + C299(16) >= -2.999662e+06
 c255: - 1e+06 B31(16) - 1e+06 B35(15) + 1e+06 B246(2) + C295(18)
   - C299(16) >= -1.999904e+06
 c256: - 1e+06 B33(17) - 1e+06 B38(18) - 1e+06 B248(2) + C297(18)
   - C302(18) >= -2.999546e+06
 c257: - 1e+06 B33(17) - 1e+06 B38(18) + 1e+06 B248(2) - C297(18)
   + C302(18) >= -1.999246e+06
 c258: - 1e+06 B33(17) - 1e+06 B38(18) - 1e+06 B262(2) - C297(18)
   + C302(18) >= -2.999246e+06
 c259: - 1e+06 B33(17) - 1e+06 B38(18) + 1e+06 B262(2) + C297(18)
   - C302(18) >= -1.999546e+06
 c260: C264(20) >= 0
 c261: C265(16) >= 0
 c262: C266(10) >= 0
 c263: C267(16) >= 0
 c264: C268(16) >= 0
 c265: C269(18) >= 0
 c266: C270(16) >= 0
 c267: - 480 B6(16) + C270(16) >= 0
 c268: C271(16) >= 0
 c269: - 480 B7(16) + C271(16) >= 0
 c270: C272(16) >= 0
 c271: - 480 B8(16) + C272(16) >= 0
 c272: C273(16) >= 0
 c273: C274(12) >= 0
 c274: C275(10) >= 0
 c275: C276(14) >= 0
 c276: C277(18) >= 0
 c277: C278(16) >= 0
 c278: C279(14) >= 0
 c279: - 480 B15(14) + C279(14) >= 0
 c280: C280(18) >= 0
 c281: - 480 B16(18) + C280(18) >= 0
 c282: C281(20) >= 0
 c283: C282(16) >= 0
 c284: C283(12) >= 0
 c285: C284(16) >= 0
 c286: C285(18) >= 0
 c287: C286(8) >= 0
 c288: C287(14) >= 0
 c289: - 480 B23(14) + C287(14) >= 0
 c290: C288(14) >= 0
 c291: - 480 B24(14) + C288(14) >= 0
 c292: C289(18) >= 0
 c293: C290(12) >= 0
 c294: C291(16) >= 0
 c295: C292(14) >= 0
 c296: C293(14) >= 0
 c297: - 480 B29(14) + C293(14) >= 0
 c298: C294(14) >= 0
 c299: - 480 B30(14) + C294(14) >= 0
 c300: C295(18) >= 0
 c301: C296(12) >= 0
 c302: C297(18) >= 0
 c303: C298(16) >= 0
 c304: C299(16) >= 0
 c305: C300(14) >= 0
 c306: - 480 B36(14) + C300(14) >= 0
 c307: C301(14) >= 0
 c308: - 480 B37(14) + C301(14) >= 0
 c309: C302(18) >= 0
 c310: - 480 B38(18) + C302(18) >= 0
 c311: - 122 B3(15) - 130 B4(15) - 140 B5(17) + C264(20) + C265(16)
   + C266(10) - C267(16) - C268(16) - C269(18) >= 0
 c312: - 147 B6(16) - 122 B7(16) - 145 B8(16) + C267(16) + C268(16)
   + C269(18) - C270(16) - C271(16) - C272(16) >= 0
 c313: - 66 B12(13) - 87 B13(17) - 99 B14(15) + C273(16) + C274(12)
   + C275(10) - C276(14) - C277(18) - C278(16) >= 0
 c314: - 214 B15(14) - 150 B16(18) + C276(14) + C277(18) + C278(16)
   - C279(14) - C280(18) >= 0
 c315: - 180 B20(15) - 105 B21(17) - 145 B22(7) + C281(20) + C282(16)
   + C283(12) - C284(16) - C285(18) - C286(8) >= 0
 c316: - 87 B23(14) - 62 B24(14) + C284(16) + C285(18) + C286(8) - C287(14)
   - C288(14) >= 0
 c317: - 250 B27(15) - 173 B28(13) + C289(18) + C290(12) - C291(16)
   - C292(14) >= 0
 c318: - 87 B29(14) - 65 B30(14) + C291(16) + C292(14) - C293(14)
   - C294(14) >= 0
 c319: - 86 B33(17) - 65 B34(15) - 47 B35(15) + C295(18) + C296(12)
   - C297(18) - C298(16) - C299(16) >= 0
 c320: - 128 B36(14) - 122 B37(14) - 145 B38(18) + C297(18) + C298(16)
   + C299(16) - C300(14) - C301(14) - C302(18) >= 0
 c321: 150 B0(18) + C264(20) - 1e+06 B304(4) >= -999520
 c322: 150 B0(18) + C264(20) - 1e+06 B304(4) <= 480
 c323: 160 B1(14) + C265(16) - 1e+06 B305(4) >= -999520
 c324: 160 B1(14) + C265(16) - 1e+06 B305(4) <= 480
 c325: 200 B2(8) + C266(10) - 1e+06 B306(4) >= -999520
 c326: 200 B2(8) + C266(10) - 1e+06 B306(4) <= 480
 c327: 178 B9(14) + C273(16) - 1e+06 B307(4) >= -999520
 c328: 178 B9(14) + C273(16) - 1e+06 B307(4) <= 480
 c329: 95 B10(10) + C274(12) - 1e+06 B308(4) >= -999520
 c330: 95 B10(10) + C274(12) - 1e+06 B308(4) <= 480
 c331: 150 B11(8) + C275(10) - 1e+06 B309(4) >= -999520
 c332: 150 B11(8) + C275(10) - 1e+06 B309(4) <= 480
 c333: 190 B17(18) + C281(20) - 1e+06 B310(4) >= -999520
 c334: 190 B17(18) + C281(20) - 1e+06 B310(4) <= 480
 c335: 100 B18(14) + C282(16) - 1e+06 B311(4) >= -999520
 c336: 100 B18(14) + C282(16) - 1e+06 B311(4) <= 480
 c337: 153 B19(10) + C283(12) - 1e+06 B312(4) >= -999520
 c338: 153 B19(10) + C283(12) - 1e+06 B312(4) <= 480
 c339: 145 B25(16) + C289(18) - 1e+06 B313(4) >= -999520
 c340: 145 B25(16) + C289(18) - 1e+06 B313(4) <= 480
 c341: 136 B26(10) + C290(12) - 1e+06 B314(4) >= -999520
 c342: 136 B26(10) + C290(12) - 1e+06 B314(4) <= 480
 c343: 110 B31(16) + C295(18) - 1e+06 B315(4) >= -999520
 c344: 110 B31(16) + C295(18) - 1e+06 B315(4) <= 480
 c345: 85 B32(10) + C296(12) - 1e+06 B316(4) >= -999520
 c346: 85 B32(10) + C296(12) - 1e+06 B316(4) <= 480
 qc0: I303(1) + 330 B304(4) + 320 B305(4) + 280 B306(4) + 302 B307(4)
   + 385 B308(4) + 330 B309(4) + 290 B310(4) + 380 B311(4) + 327 B312(4)
   + 335 B313(4) + 344 B314(4) + 370 B315(4) + 395 B316(4) + [
   - C264(20) * B304(4) - C265(16) * B305(4) - C266(10) * B306(4)
   - C273(16) * B307(4) - C274(12) * B308(4) - C275(10) * B309(4)
   - C281(20) * B310(4) - C282(16) * B311(4) - C283(12) * B312(4)
   - C289(18) * B313(4) - C290(12) * B314(4) - C295(18) * B315(4)
   - C296(12) * B316(4) ] >= 0
Bounds
Binaries
 B0(18) B1(14) B2(8) B3(15) B4(15) B5(17) B6(16) B7(16) B8(16) B9(14)
 B10(10) B11(8) B12(13) B13(17) B14(15) B15(14) B16(18) B17(18) B18(14)
 B19(10) B20(15) B21(17) B22(7) B23(14) B24(14) B25(16) B26(10) B27(15)
 B28(13) B29(14) B30(14) B31(16) B32(10) B33(17) B34(15) B35(15) B36(14)
 B37(14) B38(18) B39(0) B40(2) B41(0) B42(4) B43(2) B44(0) B45(4) B46(4)
 B47(0) B48(2) B49(2) B50(0) B51(2) B52(4) B53(0) B54(2) B55(0) B56(4)
 B57(0) B58(4) B59(2) B60(2) B61(2) B62(4) B63(2) B64(0) B65(4) B66(0)
 B67(2) B68(4) B69(0) B70(4) B71(0) B72(0) B73(4) B74(4) B75(0) B76(2)
 B77(4) B78(0) B79(2) B80(4) B81(0) B82(2) B83(6) B84(0) B85(0) B86(0)
 B87(0) B88(0) B89(0) B90(4) B91(2) B92(0) B93(2) B94(2) B95(0) B96(4)
 B97(2) B98(0) B99(0) B100(0) B101(0) B102(0) B103(0) B104(2) B105(2)
 B106(4) B107(2) B108(2) B109(2) B110(2) B111(0) B112(4) B113(4) B114(0)
 B115(0) B116(0) B117(0) B118(2) B119(0) B120(0) B121(2) B122(2) B123(0)
 B124(2) B125(2) B126(0) B127(2) B128(4) B129(0) B130(0) B131(0) B132(0)
 B133(0) B134(0) B135(0) B136(2) B137(0) B138(4) B139(2) B140(0) B141(4)
 B142(4) B143(0) B144(0) B145(0) B146(0) B147(0) B148(0) B149(0) B150(2)
 B151(0) B152(0) B153(2) B154(2) B155(0) B156(0) B157(4) B158(2) B159(0)
 B160(0) B161(0) B162(0) B163(0) B164(0) B165(0) B166(0) B167(0) B168(0)
 B169(0) B170(4) B171(0) B172(0) B173(4) B174(0) B175(0) B176(0) B177(0)
 B178(0) B179(0) B180(0) B181(0) B182(0) B183(0) B184(0) B185(0) B186(2)
 B187(2) B188(0) B189(0) B190(0) B191(0) B192(0) B193(0) B194(0) B195(0)
 B196(0) B197(0) B198(0) B199(0) B200(0) B201(2) B202(4) B203(2) B204(0)
 B205(0) B206(0) B207(0) B208(0) B209(0) B210(0) B211(0) B212(0) B213(0)
 B214(0) B215(0) B216(0) B217(0) B218(4) B219(0) B220(0) B221(0) B222(0)
 B223(0) B224(0) B225(0) B226(0) B227(0) B228(0) B229(0) B230(0) B231(0)
 B232(2) B233(0) B234(0) B235(0) B236(0) B237(0) B238(0) B239(0) B240(0)
 B241(0) B242(0) B243(0) B244(0) B245(0) B246(2) B247(0) B248(2) B249(0)
 B250(0) B251(0) B252(0) B253(0) B254(0) B255(0) B256(0) B257(0) B258(0)
 B259(0) B260(0) B261(0) B262(2) B263(0) B304(4) B305(4) B306(4) B307(4)
 B308(4) B309(4) B310(4) B311(4) B312(4) B313(4) B314(4) B315(4) B316(4)
Generals
 I303(1)
End
